c n orig vars 283
p cnf 532 995
-388 0
-284 395 0
-284 343 0
284 -395 -343 0
286 -287 0
286 -288 0
-286 287 288 0
287 -289 0
287 -66 0
-287 289 66 0
-288 298 0
-288 299 0
288 -298 -299 0
289 -63 0
289 -65 0
-289 63 65 0
-290 292 0
-290 348 0
290 -292 -348 0
-291 445 0
-291 446 0
291 -445 -446 0
345 -317 0
345 -318 0
-345 317 318 0
348 -204 0
348 -187 0
-348 204 187 0
294 -81 0
294 -31 0
-294 81 31 0
-295 445 0
-295 446 0
295 -445 -446 0
-296 294 0
-296 331 0
296 -294 -331 0
-297 296 0
-297 295 0
297 -296 -295 0
-298 513 0
-298 512 0
298 -513 -512 0
-299 445 0
-299 446 0
299 -445 -446 0
-300 362 0
-300 38 0
300 -362 -38 0
301 -89 0
301 -88 0
-301 89 88 0
330 -252 0
330 -10 0
330 -261 0
330 -260 0
330 -226 0
330 -258 0
330 -231 0
330 -228 0
-330 252 10 261 260 226 258 231 228 0
362 -360 0
362 -297 0
-362 360 297 0
-304 530 0
-304 529 0
304 -530 -529 0
-305 312 0
-305 311 0
305 -312 -311 0
-306 528 0
-306 529 0
306 -528 -529 0
307 -305 0
307 -304 0
-307 305 304 0
-308 527 0
-308 529 0
308 -527 -529 0
309 -307 0
309 -306 0
-309 307 306 0
310 -309 0
310 -308 0
-310 309 308 0
311 -390 0
311 -284 0
-311 390 284 0
-312 532 0
-312 531 0
312 -532 -531 0
313 -77 0
313 -76 0
-313 77 76 0
314 -75 0
314 -72 0
-314 75 72 0
315 -30 0
315 -72 0
-315 30 72 0
316 -71 0
316 -74 0
-316 71 74 0
317 -315 0
317 -316 0
-317 315 316 0
318 -73 0
318 -76 0
-318 73 76 0
319 -320 0
319 -313 0
-319 320 313 0
320 -314 0
320 -428 0
-320 314 428 0
321 -345 0
321 -322 0
-321 345 322 0
322 -126 0
322 -127 0
322 -124 0
-322 126 127 124 0
323 -19 0
323 -129 0
323 -128 0
323 -15 0
323 -22 0
323 -21 0
323 -12 0
323 -17 0
-323 19 129 128 15 22 21 12 17 0
324 -173 0
324 -129 0
324 -128 0
324 -16 0
324 -15 0
324 -18 0
324 -17 0
324 -20 0
-324 173 129 128 16 15 18 17 20 0
325 -269 0
325 -129 0
325 -128 0
325 -16 0
325 -22 0
325 -18 0
325 -268 0
325 -12 0
-325 269 129 128 16 22 18 268 12 0
326 -11 0
326 -129 0
326 -16 0
326 -15 0
326 -22 0
326 -21 0
326 -268 0
326 -20 0
-326 11 129 16 15 22 21 268 20 0
327 -239 0
327 -271 0
327 -264 0
327 -266 0
327 -238 0
327 -237 0
327 -236 0
327 -272 0
-327 239 271 264 266 238 237 236 272 0
328 -270 0
328 -271 0
328 -264 0
328 -265 0
328 -266 0
328 -267 0
328 -272 0
328 -273 0
-328 270 271 264 265 266 267 272 273 0
329 -233 0
329 -271 0
329 -264 0
329 -265 0
329 -238 0
329 -267 0
329 -234 0
329 -236 0
-329 233 271 264 265 238 267 234 236 0
333 -235 0
333 -271 0
333 -265 0
333 -266 0
333 -238 0
333 -237 0
333 -234 0
333 -273 0
-333 235 271 265 266 238 237 234 273 0
335 -440 0
335 -232 0
-335 440 232 0
332 -335 0
332 -439 0
-332 335 439 0
334 -8 0
334 -224 0
334 -330 0
334 -253 0
-334 8 224 330 253 0
-336 334 0
-336 7 0
336 -334 -7 0
337 -250 0
337 -336 0
-337 250 336 0
339 -3 0
339 -229 0
339 -251 0
-339 3 229 251 0
340 -154 0
340 -155 0
340 -247 0
340 -278 0
340 -162 0
340 -163 0
340 -135 0
340 -134 0
-340 154 155 247 278 162 163 135 134 0
341 -196 0
341 -160 0
341 -161 0
341 -275 0
341 -158 0
341 -159 0
341 -156 0
341 -157 0
-341 196 160 161 275 158 159 156 157 0
342 -350 0
342 -349 0
-342 350 349 0
343 -133 0
343 -132 0
343 -248 0
343 -283 0
343 -139 0
343 -138 0
343 -137 0
343 -136 0
-343 133 132 248 283 139 138 137 136 0
344 -319 0
344 -347 0
-344 319 347 0
292 -241 0
292 -184 0
-292 241 184 0
346 -191 0
346 -190 0
346 -193 0
346 -276 0
346 -192 0
346 -195 0
346 -194 0
346 -197 0
-346 191 190 193 276 192 195 194 197 0
347 -125 0
347 -130 0
347 -131 0
-347 125 130 131 0
293 -8 0
293 -224 0
293 -363 0
293 -225 0
-293 8 224 363 225 0
349 -323 0
349 -327 0
349 -341 0
349 -143 0
349 -389 0
-349 323 327 341 143 389 0
350 -380 0
350 -479 0
-350 380 479 0
428 -78 0
428 -74 0
-428 78 74 0
-352 355 0
-352 167 0
352 -355 -167 0
353 -352 0
353 -357 0
-353 352 357 0
354 -356 0
354 -355 0
-354 356 355 0
355 -175 0
355 -174 0
355 -169 0
-355 175 174 169 0
-356 357 0
-356 179 0
356 -357 -179 0
357 -168 0
357 -171 0
357 -170 0
-357 168 171 170 0
-358 523 0
-358 183 0
358 -523 -183 0
359 -358 0
359 -525 0
-359 358 525 0
520 -217 0
520 -216 0
-520 217 216 0
360 -32 0
360 -29 0
-360 32 29 0
361 -164 0
361 -176 0
361 -375 0
-361 164 176 375 0
375 -166 0
375 -165 0
375 -189 0
375 -188 0
-375 166 165 189 188 0
363 -230 0
363 -10 0
363 -260 0
363 -259 0
363 -226 0
363 -227 0
363 -231 0
363 -256 0
-363 230 10 260 259 226 227 231 256 0
-364 436 0
-364 340 0
364 -436 -340 0
365 -219 0
365 -509 0
365 -366 0
365 -367 0
-365 219 509 366 367 0
366 -93 0
366 -94 0
-366 93 94 0
367 -244 0
367 -245 0
367 -246 0
367 -247 0
367 -248 0
367 -249 0
-367 244 245 246 247 248 249 0
368 -218 0
368 -144 0
368 -213 0
368 -24 0
368 -23 0
368 -26 0
368 -212 0
368 -215 0
-368 218 144 213 24 23 26 212 215 0
369 -214 0
369 -198 0
369 -221 0
369 -201 0
369 -199 0
369 -118 0
369 -220 0
369 -46 0
-369 214 198 221 201 199 118 220 46 0
370 -369 0
370 -368 0
-370 369 368 0
371 -47 0
371 -370 0
371 -372 0
371 -373 0
371 -374 0
-371 47 370 372 373 374 0
372 -95 0
372 -96 0
-372 95 96 0
373 -420 0
373 -419 0
-373 420 419 0
374 -50 0
374 -54 0
374 -277 0
374 -276 0
374 -275 0
374 -274 0
-374 50 54 277 276 275 274 0
376 -462 0
376 -62 0
376 -59 0
-376 462 62 59 0
377 -380 0
377 -477 0
-377 380 477 0
-378 421 0
-378 522 0
378 -421 -522 0
379 -286 0
379 -344 0
-379 286 344 0
380 -361 0
380 -381 0
-380 361 381 0
381 -371 0
381 -90 0
-381 371 90 0
382 -361 0
382 -383 0
-382 361 383 0
383 -409 0
383 -91 0
-383 409 91 0
384 -361 0
384 -383 0
-384 361 383 0
385 -413 0
385 -60 0
385 -59 0
-385 413 60 59 0
386 -384 0
386 -476 0
-386 384 476 0
-416 410 0
-416 518 0
416 -410 -518 0
-388 310 0
388 -310 0
389 -454 0
389 -455 0
-389 454 455 0
390 -391 0
390 -392 0
-390 391 392 0
-391 393 0
-391 394 0
391 -393 -394 0
392 -326 0
392 -333 0
392 -340 0
392 -140 0
392 -434 0
-392 326 333 340 140 434 0
393 -382 0
393 -476 0
-393 382 476 0
394 -427 0
394 -385 0
-394 427 385 0
395 -396 0
395 -392 0
-395 396 392 0
396 -386 0
396 -387 0
-396 386 387 0
-397 445 0
-397 446 0
397 -445 -446 0
-398 404 0
-398 403 0
398 -404 -403 0
399 -186 0
399 -203 0
399 -208 0
399 -206 0
399 -181 0
399 -180 0
399 -205 0
399 -210 0
-399 186 203 208 206 181 180 205 210 0
-400 398 0
-400 397 0
400 -398 -397 0
401 -406 0
401 -182 0
-401 406 182 0
402 -401 0
402 -407 0
-402 401 407 0
403 -204 0
403 -187 0
-403 204 187 0
404 -241 0
404 -184 0
-404 241 184 0
510 -27 0
510 -198 0
510 -211 0
510 -201 0
510 -199 0
510 -118 0
510 -119 0
510 -116 0
-510 27 198 211 201 199 118 119 116 0
406 -147 0
406 -203 0
406 -209 0
406 -206 0
406 -181 0
406 -180 0
406 -148 0
406 -79 0
-406 147 203 209 206 181 180 148 79 0
-407 500 0
-407 501 0
407 -500 -501 0
511 -64 0
511 -144 0
511 -149 0
511 -24 0
511 -23 0
511 -26 0
511 -25 0
511 -28 0
-511 64 144 149 24 23 26 25 28 0
409 -44 0
409 -285 0
409 -302 0
409 -415 0
409 -414 0
-409 44 285 302 415 414 0
285 -411 0
285 -412 0
-285 411 412 0
411 -42 0
411 -198 0
411 -211 0
411 -221 0
411 -199 0
411 -43 0
411 -220 0
411 -119 0
-411 42 198 211 221 199 43 220 119 0
412 -48 0
412 -144 0
412 -149 0
412 -213 0
412 -23 0
412 -49 0
412 -212 0
412 -25 0
-412 48 144 149 213 23 49 212 25 0
-413 418 0
-413 45 0
413 -418 -45 0
414 -281 0
414 -280 0
414 -279 0
414 -278 0
414 -283 0
414 -282 0
-414 281 280 279 278 283 282 0
415 -378 0
415 -379 0
-415 378 379 0
302 -97 0
302 -98 0
-302 97 98 0
417 -40 0
417 -41 0
-417 40 41 0
418 -417 0
418 -464 0
-418 417 464 0
419 -469 0
419 -321 0
-419 469 321 0
-420 423 0
-420 422 0
420 -423 -422 0
421 -467 0
421 -402 0
421 -354 0
-421 467 402 354 0
422 -447 0
422 -359 0
422 -472 0
-422 447 359 472 0
423 -332 0
423 -524 0
423 -473 0
-423 332 524 473 0
424 -339 0
424 -337 0
-424 339 337 0
425 -361 0
425 -426 0
-425 361 426 0
426 -365 0
426 -99 0
-426 365 99 0
427 -361 0
427 -426 0
-427 361 426 0
522 -466 0
522 -504 0
522 -353 0
-522 466 504 353 0
429 -384 0
429 -478 0
-429 384 478 0
430 -425 0
430 -376 0
-430 425 376 0
440 -202 0
440 -203 0
440 -208 0
440 -209 0
440 -206 0
440 -207 0
440 -210 0
440 -79 0
-440 202 203 208 209 206 207 210 79 0
431 -325 0
431 -329 0
431 -343 0
431 -92 0
431 -424 0
-431 325 329 343 92 424 0
-432 438 0
-432 437 0
432 -438 -437 0
433 -432 0
433 -431 0
-433 432 431 0
434 -451 0
434 -492 0
-434 451 492 0
435 -430 0
435 -429 0
-435 430 429 0
436 -435 0
436 -431 0
-436 435 431 0
437 -382 0
437 -478 0
-437 382 478 0
438 -427 0
438 -376 0
-438 427 376 0
-439 441 0
-439 442 0
439 -441 -442 0
-484 486 0
-484 489 0
484 -486 -489 0
-441 443 0
-441 444 0
441 -443 -444 0
-442 445 0
-442 446 0
442 -445 -446 0
443 -241 0
443 -240 0
-443 241 240 0
444 -204 0
444 -51 0
-444 204 51 0
445 -101 0
445 -100 0
-445 101 100 0
485 -2 0
485 -505 0
-485 2 505 0
447 -448 0
447 -400 0
-447 448 400 0
448 -399 0
448 -185 0
-448 399 185 0
521 -121 0
521 -114 0
-521 121 114 0
450 -262 0
450 -10 0
450 -261 0
450 -259 0
450 -226 0
450 -227 0
450 -228 0
450 -257 0
-450 262 10 261 259 226 227 228 257 0
451 -3 0
451 -229 0
451 -222 0
-451 3 229 222 0
-452 453 0
-452 7 0
452 -453 -7 0
453 -8 0
453 -5 0
453 -450 0
453 -263 0
-453 8 5 450 263 0
454 -3 0
454 -4 0
454 -255 0
-454 3 4 255 0
455 -254 0
455 -452 0
-455 254 452 0
456 -457 0
456 -303 0
-456 457 303 0
457 -83 0
457 -82 0
-457 83 82 0
458 -89 0
458 -85 0
-458 89 85 0
-459 456 0
-459 84 0
459 -456 -84 0
460 -87 0
460 -86 0
-460 87 86 0
446 -242 0
446 -243 0
-446 242 243 0
-462 463 0
-462 45 0
462 -463 -45 0
463 -460 0
463 -461 0
-463 460 461 0
-464 465 0
-464 446 0
464 -465 -446 0
465 -89 0
465 -88 0
-465 89 88 0
387 -425 0
387 -385 0
-387 425 385 0
466 -70 0
466 -141 0
466 -142 0
466 -109 0
466 -111 0
466 -107 0
466 -69 0
466 -104 0
-466 70 141 142 109 111 107 69 104 0
467 -103 0
467 -141 0
467 -109 0
467 -108 0
467 -111 0
467 -110 0
467 -69 0
467 -113 0
-467 103 141 109 108 111 110 69 113 0
468 -474 0
468 -67 0
-468 474 67 0
469 -468 0
469 -475 0
-469 468 475 0
470 -204 0
470 -151 0
-470 204 151 0
471 -200 0
471 -150 0
-471 200 150 0
472 -112 0
472 -141 0
472 -142 0
472 -108 0
472 -111 0
472 -110 0
472 -104 0
472 -106 0
-472 112 141 142 108 111 110 104 106 0
473 -153 0
473 -141 0
473 -142 0
473 -109 0
473 -108 0
473 -107 0
473 -106 0
473 -113 0
-473 153 141 142 109 108 107 106 113 0
474 -68 0
474 -65 0
-474 68 65 0
-475 290 0
-475 291 0
475 -290 -291 0
-410 519 0
-410 494 0
410 -519 -494 0
477 -459 0
477 -61 0
477 -56 0
-477 459 61 56 0
478 -300 0
478 -53 0
478 -58 0
-478 300 53 58 0
479 -449 0
479 -57 0
479 -56 0
-479 449 57 56 0
480 -483 0
480 -52 0
480 -346 0
480 -328 0
480 -324 0
-480 483 52 346 328 324 0
481 -377 0
481 -480 0
-481 377 480 0
482 -3 0
482 -4 0
482 -1 0
-482 3 4 1 0
483 -482 0
483 -485 0
-483 482 485 0
-505 493 0
-505 7 0
505 -493 -7 0
-303 484 0
-303 487 0
303 -484 -487 0
486 -81 0
486 -80 0
-486 81 80 0
-487 445 0
-487 446 0
487 -445 -446 0
-488 491 0
-488 38 0
488 -491 -38 0
489 -89 0
489 -37 0
-489 89 37 0
490 -35 0
490 -36 0
-490 35 36 0
491 -490 0
491 -416 0
-491 490 416 0
476 -488 0
476 -55 0
476 -58 0
-476 488 55 58 0
492 -223 0
492 -517 0
-492 223 517 0
493 -8 0
493 -5 0
493 -495 0
493 -6 0
-493 8 5 495 6 0
495 -9 0
495 -10 0
495 -261 0
495 -260 0
495 -259 0
495 -258 0
495 -257 0
495 -256 0
-495 9 10 261 260 259 258 257 256 0
-496 471 0
-496 470 0
496 -471 -470 0
-497 445 0
-497 446 0
497 -445 -446 0
498 -200 0
498 -178 0
-498 200 178 0
499 -204 0
499 -146 0
-499 204 146 0
-500 498 0
-500 499 0
500 -498 -499 0
-501 445 0
-501 446 0
501 -445 -446 0
-502 496 0
-502 497 0
502 -496 -497 0
503 -152 0
503 -203 0
503 -208 0
503 -209 0
503 -181 0
503 -207 0
503 -148 0
503 -205 0
-503 152 203 208 209 181 207 148 205 0
504 -338 0
504 -502 0
-504 338 502 0
338 -503 0
338 -105 0
-338 503 105 0
-517 293 0
-517 7 0
517 -293 -7 0
-461 458 0
-461 446 0
461 -458 -446 0
331 -89 0
331 -88 0
-331 89 88 0
506 -520 0
506 -115 0
-506 520 115 0
-507 521 0
-507 446 0
507 -521 -446 0
508 -123 0
508 -120 0
-508 123 120 0
509 -508 0
509 -117 0
509 -507 0
509 -506 0
509 -122 0
509 -510 0
509 -511 0
-509 508 117 507 506 122 510 511 0
-405 445 0
-405 446 0
405 -445 -446 0
408 -81 0
408 -31 0
-408 81 31 0
512 -204 0
512 -151 0
-512 204 151 0
513 -200 0
513 -150 0
-513 200 150 0
514 -515 0
514 -516 0
-514 515 516 0
515 -33 0
515 -34 0
-515 33 34 0
-516 351 0
-516 405 0
516 -351 -405 0
-351 408 0
-351 301 0
351 -408 -301 0
-518 445 0
-518 446 0
518 -445 -446 0
519 -81 0
519 -80 0
-519 81 80 0
494 -89 0
494 -37 0
-494 89 37 0
-449 514 0
-449 84 0
449 -514 -84 0
523 -14 0
523 -39 0
523 -13 0
-523 14 39 13 0
524 -526 0
524 -523 0
-524 526 523 0
525 -145 0
525 -102 0
525 -172 0
-525 145 102 172 0
-526 525 0
-526 177 0
526 -525 -177 0
-527 531 0
-527 311 0
527 -531 -311 0
-528 532 0
-528 311 0
528 -532 -311 0
529 -433 0
529 -364 0
-529 433 364 0
-530 532 0
-530 531 0
530 -532 -531 0
531 -342 0
531 -346 0
-531 342 346 0
532 -481 0
532 -341 0
-532 481 341 0
